# Node Net
180   1
2220   1
3572   1
2280   1
3589   1
3361   2
1321   2
3549   2
3598   2
1501   2
3546   3
420   3
3555   3
660   3
 26   3
  7   4
3596   4
3592   4
 14   4
 22   4
301   5
 33   5
 24   5
3000   6
 47   6
 25   7
2940   7
3571   8
 36   8
1080   9
1140   9
3550  10
2520  10
3120  11
1260  11
 45  12
3568  12
